NAME           C:\Bruker\Hvattum\knapsack\Problems\class4\100-10-02.mps
ROWS
 N  OBJ
 L  CONSTR1
 L  CONSTR2
 L  CONSTR3
 L  CONSTR4
 L  CONSTR5
 L  CONSTR6
 L  CONSTR7
 L  CONSTR8
 L  CONSTR9
 L  CONSTR10
COLUMNS
    INT0001   'MARKER'  'INTORG'
    X1        OBJ       877
    X1        CONSTR1   504
    X1        CONSTR2   923
    X1        CONSTR3   80
    X1        CONSTR4   870
    X1        CONSTR5   763
    X1        CONSTR6   637
    X1        CONSTR7   695
    X1        CONSTR8   556
    X1        CONSTR9   807
    X1        CONSTR10  469
    X2        OBJ       485
    X2        CONSTR1   793
    X2        CONSTR2   48
    X2        CONSTR3   905
    X2        CONSTR4   28
    X2        CONSTR5   568
    X2        CONSTR6   926
    X2        CONSTR7   517
    X2        CONSTR8   244
    X2        CONSTR9   314
    X2        CONSTR10  239
    X3        OBJ       931
    X3        CONSTR1   417
    X3        CONSTR2   745
    X3        CONSTR3   997
    X3        CONSTR4   785
    X3        CONSTR5   561
    X3        CONSTR6   187
    X3        CONSTR7   611
    X3        CONSTR8   897
    X3        CONSTR9   275
    X3        CONSTR10  538
    X4        OBJ       957
    X4        CONSTR1   431
    X4        CONSTR2   889
    X4        CONSTR3   283
    X4        CONSTR4   997
    X4        CONSTR5   430
    X4        CONSTR6   170
    X4        CONSTR7   363
    X4        CONSTR8   976
    X4        CONSTR9   744
    X4        CONSTR10  116
    X5        OBJ       693
    X5        CONSTR1   998
    X5        CONSTR2   123
    X5        CONSTR3   851
    X5        CONSTR4   610
    X5        CONSTR5   459
    X5        CONSTR6   562
    X5        CONSTR7   308
    X5        CONSTR8   580
    X5        CONSTR9   566
    X5        CONSTR10  632
    X6        OBJ       451
    X6        CONSTR1   431
    X6        CONSTR2   864
    X6        CONSTR3   206
    X6        CONSTR4   345
    X6        CONSTR5   221
    X6        CONSTR6   10
    X6        CONSTR7   250
    X6        CONSTR8   533
    X6        CONSTR9   629
    X6        CONSTR10  281
    X7        OBJ       930
    X7        CONSTR1   371
    X7        CONSTR2   142
    X7        CONSTR3   918
    X7        CONSTR4   845
    X7        CONSTR5   910
    X7        CONSTR6   388
    X7        CONSTR7   269
    X7        CONSTR8   390
    X7        CONSTR9   220
    X7        CONSTR10  279
    X8        OBJ       406
    X8        CONSTR1   636
    X8        CONSTR2   118
    X8        CONSTR3   212
    X8        CONSTR4   731
    X8        CONSTR5   339
    X8        CONSTR6   454
    X8        CONSTR7   161
    X8        CONSTR8   463
    X8        CONSTR9   273
    X8        CONSTR10  599
    X9        OBJ       736
    X9        CONSTR1   239
    X9        CONSTR2   643
    X9        CONSTR3   32
    X9        CONSTR4   972
    X9        CONSTR5   505
    X9        CONSTR6   932
    X9        CONSTR7   388
    X9        CONSTR8   245
    X9        CONSTR9   297
    X9        CONSTR10  74
    X10       OBJ       668
    X10       CONSTR1   361
    X10       CONSTR2   67
    X10       CONSTR3   483
    X10       CONSTR4   605
    X10       CONSTR5   765
    X10       CONSTR6   302
    X10       CONSTR7   787
    X10       CONSTR8   527
    X10       CONSTR9   668
    X10       CONSTR10  292
    X11       OBJ       846
    X11       CONSTR1   408
    X11       CONSTR2   582
    X11       CONSTR3   734
    X11       CONSTR4   106
    X11       CONSTR5   322
    X11       CONSTR6   697
    X11       CONSTR7   347
    X11       CONSTR8   323
    X11       CONSTR9   535
    X11       CONSTR10  468
    X12       OBJ       941
    X12       CONSTR1   766
    X12       CONSTR2   966
    X12       CONSTR3   809
    X12       CONSTR4   989
    X12       CONSTR5   746
    X12       CONSTR6   969
    X12       CONSTR7   293
    X12       CONSTR8   660
    X12       CONSTR9   660
    X12       CONSTR10  223
    X13       OBJ       795
    X13       CONSTR1   184
    X13       CONSTR2   164
    X13       CONSTR3   614
    X13       CONSTR4   301
    X13       CONSTR5   179
    X13       CONSTR6   295
    X13       CONSTR7   145
    X13       CONSTR8   26
    X13       CONSTR9   242
    X13       CONSTR10  808
    X14       OBJ       832
    X14       CONSTR1   145
    X14       CONSTR2   206
    X14       CONSTR3   661
    X14       CONSTR4   648
    X14       CONSTR5   840
    X14       CONSTR6   855
    X14       CONSTR7   573
    X14       CONSTR8   419
    X14       CONSTR9   584
    X14       CONSTR10  622
    X15       OBJ       599
    X15       CONSTR1   66
    X15       CONSTR2   406
    X15       CONSTR3   327
    X15       CONSTR4   987
    X15       CONSTR5   340
    X15       CONSTR6   466
    X15       CONSTR7   423
    X15       CONSTR8   239
    X15       CONSTR9   492
    X15       CONSTR10  108
    X16       OBJ       703
    X16       CONSTR1   900
    X16       CONSTR2   386
    X16       CONSTR3   65
    X16       CONSTR4   14
    X16       CONSTR5   152
    X16       CONSTR6   873
    X16       CONSTR7   180
    X16       CONSTR8   414
    X16       CONSTR9   206
    X16       CONSTR10  363
    X17       OBJ       559
    X17       CONSTR1   599
    X17       CONSTR2   130
    X17       CONSTR3   485
    X17       CONSTR4   107
    X17       CONSTR5   981
    X17       CONSTR6   978
    X17       CONSTR7   132
    X17       CONSTR8   270
    X17       CONSTR9   878
    X17       CONSTR10  477
    X18       OBJ       711
    X18       CONSTR1   362
    X18       CONSTR2   604
    X18       CONSTR3   841
    X18       CONSTR4   240
    X18       CONSTR5   832
    X18       CONSTR6   575
    X18       CONSTR7   349
    X18       CONSTR8   766
    X18       CONSTR9   634
    X18       CONSTR10  493
    X19       OBJ       876
    X19       CONSTR1   301
    X19       CONSTR2   238
    X19       CONSTR3   761
    X19       CONSTR4   166
    X19       CONSTR5   99
    X19       CONSTR6   905
    X19       CONSTR7   831
    X19       CONSTR8   104
    X19       CONSTR9   622
    X19       CONSTR10  205
    X20       OBJ       727
    X20       CONSTR1   846
    X20       CONSTR2   487
    X20       CONSTR3   394
    X20       CONSTR4   975
    X20       CONSTR5   971
    X20       CONSTR6   482
    X20       CONSTR7   532
    X20       CONSTR8   296
    X20       CONSTR9   282
    X20       CONSTR10  53
    X21       OBJ       703
    X21       CONSTR1   103
    X21       CONSTR2   978
    X21       CONSTR3   377
    X21       CONSTR4   885
    X21       CONSTR5   762
    X21       CONSTR6   543
    X21       CONSTR7   406
    X21       CONSTR8   42
    X21       CONSTR9   461
    X21       CONSTR10  126
    X22       OBJ       616
    X22       CONSTR1   819
    X22       CONSTR2   778
    X22       CONSTR3   510
    X22       CONSTR4   62
    X22       CONSTR5   741
    X22       CONSTR6   289
    X22       CONSTR7   53
    X22       CONSTR8   846
    X22       CONSTR9   855
    X22       CONSTR10  21
    X23       OBJ       906
    X23       CONSTR1   382
    X23       CONSTR2   980
    X23       CONSTR3   96
    X23       CONSTR4   863
    X23       CONSTR5   799
    X23       CONSTR6   943
    X23       CONSTR7   864
    X23       CONSTR8   967
    X23       CONSTR9   768
    X23       CONSTR10  891
    X24       OBJ       686
    X24       CONSTR1   917
    X24       CONSTR2   383
    X24       CONSTR3   141
    X24       CONSTR4   180
    X24       CONSTR5   421
    X24       CONSTR6   47
    X24       CONSTR7   77
    X24       CONSTR8   700
    X24       CONSTR9   794
    X24       CONSTR10  22
    X25       OBJ       527
    X25       CONSTR1   156
    X25       CONSTR2   424
    X25       CONSTR3   136
    X25       CONSTR4   119
    X25       CONSTR5   178
    X25       CONSTR6   433
    X25       CONSTR7   358
    X25       CONSTR8   238
    X25       CONSTR9   241
    X25       CONSTR10  818
    X26       OBJ       1017
    X26       CONSTR1   977
    X26       CONSTR2   826
    X26       CONSTR3   209
    X26       CONSTR4   447
    X26       CONSTR5   89
    X26       CONSTR6   831
    X26       CONSTR7   404
    X26       CONSTR8   834
    X26       CONSTR9   922
    X26       CONSTR10  69
    X27       OBJ       718
    X27       CONSTR1   314
    X27       CONSTR2   857
    X27       CONSTR3   637
    X27       CONSTR4   19
    X27       CONSTR5   776
    X27       CONSTR6   370
    X27       CONSTR7   166
    X27       CONSTR8   572
    X27       CONSTR9   420
    X27       CONSTR10  30
    X28       OBJ       473
    X28       CONSTR1   68
    X28       CONSTR2   634
    X28       CONSTR3   451
    X28       CONSTR4   365
    X28       CONSTR5   582
    X28       CONSTR6   110
    X28       CONSTR7   24
    X28       CONSTR8   169
    X28       CONSTR9   101
    X28       CONSTR10  573
    X29       OBJ       984
    X29       CONSTR1   822
    X29       CONSTR2   781
    X29       CONSTR3   442
    X29       CONSTR4   646
    X29       CONSTR5   208
    X29       CONSTR6   496
    X29       CONSTR7   705
    X29       CONSTR8   321
    X29       CONSTR9   184
    X29       CONSTR10  891
    X30       OBJ       925
    X30       CONSTR1   68
    X30       CONSTR2   952
    X30       CONSTR3   237
    X30       CONSTR4   683
    X30       CONSTR5   882
    X30       CONSTR6   3
    X30       CONSTR7   260
    X30       CONSTR8   647
    X30       CONSTR9   576
    X30       CONSTR10  201
    X31       OBJ       839
    X31       CONSTR1   896
    X31       CONSTR2   28
    X31       CONSTR3   892
    X31       CONSTR4   257
    X31       CONSTR5   639
    X31       CONSTR6   43
    X31       CONSTR7   666
    X31       CONSTR8   33
    X31       CONSTR9   247
    X31       CONSTR10  643
    X32       OBJ       614
    X32       CONSTR1   111
    X32       CONSTR2   97
    X32       CONSTR3   123
    X32       CONSTR4   353
    X32       CONSTR5   395
    X32       CONSTR6   951
    X32       CONSTR7   713
    X32       CONSTR8   452
    X32       CONSTR9   463
    X32       CONSTR10  927
    X33       OBJ       803
    X33       CONSTR1   93
    X33       CONSTR2   499
    X33       CONSTR3   243
    X33       CONSTR4   427
    X33       CONSTR5   888
    X33       CONSTR6   61
    X33       CONSTR7   133
    X33       CONSTR8   78
    X33       CONSTR9   762
    X33       CONSTR10  670
    X34       OBJ       812
    X34       CONSTR1   757
    X34       CONSTR2   55
    X34       CONSTR3   25
    X34       CONSTR4   160
    X34       CONSTR5   123
    X34       CONSTR6   671
    X34       CONSTR7   778
    X34       CONSTR8   801
    X34       CONSTR9   498
    X34       CONSTR10  656
    X35       OBJ       596
    X35       CONSTR1   679
    X35       CONSTR2   322
    X35       CONSTR3   810
    X35       CONSTR4   568
    X35       CONSTR5   383
    X35       CONSTR6   209
    X35       CONSTR7   218
    X35       CONSTR8   304
    X35       CONSTR9   494
    X35       CONSTR10  516
    X36       OBJ       759
    X36       CONSTR1   22
    X36       CONSTR2   479
    X36       CONSTR3   705
    X36       CONSTR4   442
    X36       CONSTR5   304
    X36       CONSTR6   707
    X36       CONSTR7   188
    X36       CONSTR8   40
    X36       CONSTR9   979
    X36       CONSTR10  694
    X37       OBJ       1061
    X37       CONSTR1   825
    X37       CONSTR2   720
    X37       CONSTR3   857
    X37       CONSTR4   352
    X37       CONSTR5   812
    X37       CONSTR6   742
    X37       CONSTR7   388
    X37       CONSTR8   76
    X37       CONSTR9   834
    X37       CONSTR10  953
    X38       OBJ       624
    X38       CONSTR1   781
    X38       CONSTR2   81
    X38       CONSTR3   319
    X38       CONSTR4   795
    X38       CONSTR5   233
    X38       CONSTR6   917
    X38       CONSTR7   72
    X38       CONSTR8   128
    X38       CONSTR9   245
    X38       CONSTR10  835
    X39       OBJ       532
    X39       CONSTR1   165
    X39       CONSTR2   659
    X39       CONSTR3   700
    X39       CONSTR4   768
    X39       CONSTR5   777
    X39       CONSTR6   727
    X39       CONSTR7   79
    X39       CONSTR8   619
    X39       CONSTR9   359
    X39       CONSTR10  215
    X40       OBJ       906
    X40       CONSTR1   727
    X40       CONSTR2   573
    X40       CONSTR3   510
    X40       CONSTR4   499
    X40       CONSTR5   638
    X40       CONSTR6   548
    X40       CONSTR7   673
    X40       CONSTR8   158
    X40       CONSTR9   833
    X40       CONSTR10  434
    X41       OBJ       533
    X41       CONSTR1   750
    X41       CONSTR2   804
    X41       CONSTR3   462
    X41       CONSTR4   299
    X41       CONSTR5   59
    X41       CONSTR6   465
    X41       CONSTR7   264
    X41       CONSTR8   972
    X41       CONSTR9   52
    X41       CONSTR10  649
    X42       OBJ       318
    X42       CONSTR1   372
    X42       CONSTR2   112
    X42       CONSTR3   69
    X42       CONSTR4   587
    X42       CONSTR5   982
    X42       CONSTR6   117
    X42       CONSTR7   154
    X42       CONSTR8   670
    X42       CONSTR9   41
    X42       CONSTR10  3
    X43       OBJ       683
    X43       CONSTR1   988
    X43       CONSTR2   691
    X43       CONSTR3   280
    X43       CONSTR4   290
    X43       CONSTR5   577
    X43       CONSTR6   870
    X43       CONSTR7   242
    X43       CONSTR8   647
    X43       CONSTR9   599
    X43       CONSTR10  199
    X44       OBJ       607
    X44       CONSTR1   254
    X44       CONSTR2   756
    X44       CONSTR3   545
    X44       CONSTR4   739
    X44       CONSTR5   61
    X44       CONSTR6   401
    X44       CONSTR7   158
    X44       CONSTR8   570
    X44       CONSTR9   920
    X44       CONSTR10  911
    X45       OBJ       924
    X45       CONSTR1   945
    X45       CONSTR2   947
    X45       CONSTR3   173
    X45       CONSTR4   525
    X45       CONSTR5   573
    X45       CONSTR6   216
    X45       CONSTR7   699
    X45       CONSTR8   432
    X45       CONSTR9   978
    X45       CONSTR10  8
    X46       OBJ       939
    X46       CONSTR1   995
    X46       CONSTR2   543
    X46       CONSTR3   702
    X46       CONSTR4   910
    X46       CONSTR5   296
    X46       CONSTR6   194
    X46       CONSTR7   27
    X46       CONSTR8   81
    X46       CONSTR9   587
    X46       CONSTR10  207
    X47       OBJ       934
    X47       CONSTR1   77
    X47       CONSTR2   726
    X47       CONSTR3   317
    X47       CONSTR4   511
    X47       CONSTR5   84
    X47       CONSTR6   155
    X47       CONSTR7   900
    X47       CONSTR8   607
    X47       CONSTR9   494
    X47       CONSTR10  876
    X48       OBJ       739
    X48       CONSTR1   158
    X48       CONSTR2   346
    X48       CONSTR3   449
    X48       CONSTR4   918
    X48       CONSTR5   8
    X48       CONSTR6   966
    X48       CONSTR7   537
    X48       CONSTR8   187
    X48       CONSTR9   42
    X48       CONSTR10  28
    X49       OBJ       682
    X49       CONSTR1   222
    X49       CONSTR2   920
    X49       CONSTR3   732
    X49       CONSTR4   514
    X49       CONSTR5   274
    X49       CONSTR6   936
    X49       CONSTR7   692
    X49       CONSTR8   48
    X49       CONSTR9   855
    X49       CONSTR10  9
    X50       OBJ       753
    X50       CONSTR1   371
    X50       CONSTR2   784
    X50       CONSTR3   190
    X50       CONSTR4   208
    X50       CONSTR5   111
    X50       CONSTR6   275
    X50       CONSTR7   541
    X50       CONSTR8   941
    X50       CONSTR9   67
    X50       CONSTR10  447
    X51       OBJ       524
    X51       CONSTR1   482
    X51       CONSTR2   840
    X51       CONSTR3   73
    X51       CONSTR4   9
    X51       CONSTR5   110
    X51       CONSTR6   822
    X51       CONSTR7   79
    X51       CONSTR8   769
    X51       CONSTR9   341
    X51       CONSTR10  595
    X52       OBJ       881
    X52       CONSTR1   325
    X52       CONSTR2   952
    X52       CONSTR3   135
    X52       CONSTR4   487
    X52       CONSTR5   763
    X52       CONSTR6   413
    X52       CONSTR7   554
    X52       CONSTR8   576
    X52       CONSTR9   346
    X52       CONSTR10  223
    X53       OBJ       994
    X53       CONSTR1   333
    X53       CONSTR2   960
    X53       CONSTR3   158
    X53       CONSTR4   934
    X53       CONSTR5   211
    X53       CONSTR6   657
    X53       CONSTR7   777
    X53       CONSTR8   252
    X53       CONSTR9   80
    X53       CONSTR10  788
    X54       OBJ       874
    X54       CONSTR1   674
    X54       CONSTR2   92
    X54       CONSTR3   783
    X54       CONSTR4   624
    X54       CONSTR5   616
    X54       CONSTR6   91
    X54       CONSTR7   970
    X54       CONSTR8   519
    X54       CONSTR9   877
    X54       CONSTR10  404
    X55       OBJ       1056
    X55       CONSTR1   421
    X55       CONSTR2   767
    X55       CONSTR3   814
    X55       CONSTR4   892
    X55       CONSTR5   765
    X55       CONSTR6   351
    X55       CONSTR7   367
    X55       CONSTR8   771
    X55       CONSTR9   891
    X55       CONSTR10  333
    X56       OBJ       682
    X56       CONSTR1   409
    X56       CONSTR2   89
    X56       CONSTR3   341
    X56       CONSTR4   24
    X56       CONSTR5   318
    X56       CONSTR6   934
    X56       CONSTR7   362
    X56       CONSTR8   619
    X56       CONSTR9   678
    X56       CONSTR10  360
    X57       OBJ       867
    X57       CONSTR1   480
    X57       CONSTR2   914
    X57       CONSTR3   686
    X57       CONSTR4   820
    X57       CONSTR5   71
    X57       CONSTR6   462
    X57       CONSTR7   543
    X57       CONSTR8   584
    X57       CONSTR9   637
    X57       CONSTR10  823
    X58       OBJ       660
    X58       CONSTR1   673
    X58       CONSTR2   188
    X58       CONSTR3   934
    X58       CONSTR4   345
    X58       CONSTR5   420
    X58       CONSTR6   512
    X58       CONSTR7   781
    X58       CONSTR8   394
    X58       CONSTR9   592
    X58       CONSTR10  900
    X59       OBJ       594
    X59       CONSTR1   665
    X59       CONSTR2   313
    X59       CONSTR3   11
    X59       CONSTR4   658
    X59       CONSTR5   720
    X59       CONSTR6   673
    X59       CONSTR7   592
    X59       CONSTR8   69
    X59       CONSTR9   650
    X59       CONSTR10  609
    X60       OBJ       848
    X60       CONSTR1   516
    X60       CONSTR2   283
    X60       CONSTR3   810
    X60       CONSTR4   349
    X60       CONSTR5   598
    X60       CONSTR6   455
    X60       CONSTR7   903
    X60       CONSTR8   335
    X60       CONSTR9   820
    X60       CONSTR10  116
    X61       OBJ       733
    X61       CONSTR1   334
    X61       CONSTR2   167
    X61       CONSTR3   202
    X61       CONSTR4   902
    X61       CONSTR5   702
    X61       CONSTR6   66
    X61       CONSTR7   626
    X61       CONSTR8   419
    X61       CONSTR9   451
    X61       CONSTR10  627
    X62       OBJ       924
    X62       CONSTR1   454
    X62       CONSTR2   794
    X62       CONSTR3   461
    X62       CONSTR4   1000
    X62       CONSTR5   40
    X62       CONSTR6   387
    X62       CONSTR7   823
    X62       CONSTR8   26
    X62       CONSTR9   304
    X62       CONSTR10  183
    X63       OBJ       447
    X63       CONSTR1   204
    X63       CONSTR2   13
    X63       CONSTR3   844
    X63       CONSTR4   585
    X63       CONSTR5   253
    X63       CONSTR6   795
    X63       CONSTR7   423
    X63       CONSTR8   187
    X63       CONSTR9   245
    X63       CONSTR10  33
    X64       OBJ       383
    X64       CONSTR1   232
    X64       CONSTR2   83
    X64       CONSTR3   345
    X64       CONSTR4   875
    X64       CONSTR5   656
    X64       CONSTR6   236
    X64       CONSTR7   226
    X64       CONSTR8   185
    X64       CONSTR9   214
    X64       CONSTR10  487
    X65       OBJ       602
    X65       CONSTR1   12
    X65       CONSTR2   30
    X65       CONSTR3   805
    X65       CONSTR4   635
    X65       CONSTR5   307
    X65       CONSTR6   918
    X65       CONSTR7   797
    X65       CONSTR8   118
    X65       CONSTR9   222
    X65       CONSTR10  546
    X66       OBJ       863
    X66       CONSTR1   274
    X66       CONSTR2   366
    X66       CONSTR3   855
    X66       CONSTR4   730
    X66       CONSTR5   123
    X66       CONSTR6   620
    X66       CONSTR7   595
    X66       CONSTR8   601
    X66       CONSTR9   291
    X66       CONSTR10  122
    X67       OBJ       831
    X67       CONSTR1   705
    X67       CONSTR2   315
    X67       CONSTR3   769
    X67       CONSTR4   789
    X67       CONSTR5   333
    X67       CONSTR6   203
    X67       CONSTR7   600
    X67       CONSTR8   880
    X67       CONSTR9   790
    X67       CONSTR10  357
    X68       OBJ       986
    X68       CONSTR1   627
    X68       CONSTR2   354
    X68       CONSTR3   756
    X68       CONSTR4   436
    X68       CONSTR5   861
    X68       CONSTR6   894
    X68       CONSTR7   678
    X68       CONSTR8   416
    X68       CONSTR9   134
    X68       CONSTR10  454
    X69       OBJ       740
    X69       CONSTR1   352
    X69       CONSTR2   357
    X69       CONSTR3   770
    X69       CONSTR4   211
    X69       CONSTR5   404
    X69       CONSTR6   893
    X69       CONSTR7   385
    X69       CONSTR8   621
    X69       CONSTR9   649
    X69       CONSTR10  465
    X70       OBJ       607
    X70       CONSTR1   858
    X70       CONSTR2   793
    X70       CONSTR3   390
    X70       CONSTR4   91
    X70       CONSTR5   177
    X70       CONSTR6   507
    X70       CONSTR7   577
    X70       CONSTR8   228
    X70       CONSTR9   406
    X70       CONSTR10  574
    X71       OBJ       826
    X71       CONSTR1   407
    X71       CONSTR2   131
    X71       CONSTR3   376
    X71       CONSTR4   956
    X71       CONSTR5   1000
    X71       CONSTR6   810
    X71       CONSTR7   483
    X71       CONSTR8   300
    X71       CONSTR9   865
    X71       CONSTR10  306
    X72       OBJ       668
    X72       CONSTR1   401
    X72       CONSTR2   58
    X72       CONSTR3   315
    X72       CONSTR4   71
    X72       CONSTR5   91
    X72       CONSTR6   651
    X72       CONSTR7   281
    X72       CONSTR8   523
    X72       CONSTR9   288
    X72       CONSTR10  169
    X73       OBJ       585
    X73       CONSTR1   357
    X73       CONSTR2   390
    X73       CONSTR3   945
    X73       CONSTR4   939
    X73       CONSTR5   513
    X73       CONSTR6   115
    X73       CONSTR7   614
    X73       CONSTR8   383
    X73       CONSTR9   567
    X73       CONSTR10  378
    X74       OBJ       1005
    X74       CONSTR1   406
    X74       CONSTR2   228
    X74       CONSTR3   180
    X74       CONSTR4   518
    X74       CONSTR5   986
    X74       CONSTR6   646
    X74       CONSTR7   667
    X74       CONSTR8   445
    X74       CONSTR9   581
    X74       CONSTR10  520
    X75       OBJ       926
    X75       CONSTR1   556
    X75       CONSTR2   686
    X75       CONSTR3   146
    X75       CONSTR4   518
    X75       CONSTR5   999
    X75       CONSTR6   597
    X75       CONSTR7   957
    X75       CONSTR8   74
    X75       CONSTR9   401
    X75       CONSTR10  528
    X76       OBJ       831
    X76       CONSTR1   188
    X76       CONSTR2   254
    X76       CONSTR3   756
    X76       CONSTR4   546
    X76       CONSTR5   585
    X76       CONSTR6   417
    X76       CONSTR7   695
    X76       CONSTR8   951
    X76       CONSTR9   993
    X76       CONSTR10  572
    X77       OBJ       608
    X77       CONSTR1   381
    X77       CONSTR2   599
    X77       CONSTR3   148
    X77       CONSTR4   921
    X77       CONSTR5   318
    X77       CONSTR6   449
    X77       CONSTR7   802
    X77       CONSTR8   741
    X77       CONSTR9   245
    X77       CONSTR10  294
    X78       OBJ       760
    X78       CONSTR1   924
    X78       CONSTR2   294
    X78       CONSTR3   139
    X78       CONSTR4   40
    X78       CONSTR5   626
    X78       CONSTR6   758
    X78       CONSTR7   793
    X78       CONSTR8   567
    X78       CONSTR9   941
    X78       CONSTR10  22
    X79       OBJ       582
    X79       CONSTR1   575
    X79       CONSTR2   878
    X79       CONSTR3   645
    X79       CONSTR4   313
    X79       CONSTR5   414
    X79       CONSTR6   952
    X79       CONSTR7   592
    X79       CONSTR8   217
    X79       CONSTR9   558
    X79       CONSTR10  157
    X80       OBJ       794
    X80       CONSTR1   188
    X80       CONSTR2   932
    X80       CONSTR3   962
    X80       CONSTR4   15
    X80       CONSTR5   568
    X80       CONSTR6   586
    X80       CONSTR7   411
    X80       CONSTR8   5
    X80       CONSTR9   795
    X80       CONSTR10  231
    X81       OBJ       616
    X81       CONSTR1   178
    X81       CONSTR2   959
    X81       CONSTR3   71
    X81       CONSTR4   464
    X81       CONSTR5   64
    X81       CONSTR6   106
    X81       CONSTR7   948
    X81       CONSTR8   460
    X81       CONSTR9   357
    X81       CONSTR10  868
    X82       OBJ       896
    X82       CONSTR1   890
    X82       CONSTR2   632
    X82       CONSTR3   461
    X82       CONSTR4   35
    X82       CONSTR5   974
    X82       CONSTR6   864
    X82       CONSTR7   724
    X82       CONSTR8   372
    X82       CONSTR9   513
    X82       CONSTR10  535
    X83       OBJ       564
    X83       CONSTR1   696
    X83       CONSTR2   846
    X83       CONSTR3   231
    X83       CONSTR4   774
    X83       CONSTR5   206
    X83       CONSTR6   907
    X83       CONSTR7   297
    X83       CONSTR8   568
    X83       CONSTR9   324
    X83       CONSTR10  101
    X84       OBJ       770
    X84       CONSTR1   206
    X84       CONSTR2   788
    X84       CONSTR3   838
    X84       CONSTR4   296
    X84       CONSTR5   187
    X84       CONSTR6   541
    X84       CONSTR7   406
    X84       CONSTR8   653
    X84       CONSTR9   917
    X84       CONSTR10  203
    X85       OBJ       918
    X85       CONSTR1   675
    X85       CONSTR2   369
    X85       CONSTR3   937
    X85       CONSTR4   545
    X85       CONSTR5   497
    X85       CONSTR6   371
    X85       CONSTR7   454
    X85       CONSTR8   770
    X85       CONSTR9   946
    X85       CONSTR10  660
    X86       OBJ       792
    X86       CONSTR1   293
    X86       CONSTR2   361
    X86       CONSTR3   26
    X86       CONSTR4   803
    X86       CONSTR5   11
    X86       CONSTR6   28
    X86       CONSTR7   405
    X86       CONSTR8   966
    X86       CONSTR9   199
    X86       CONSTR10  495
    X87       OBJ       616
    X87       CONSTR1   768
    X87       CONSTR2   657
    X87       CONSTR3   397
    X87       CONSTR4   133
    X87       CONSTR5   387
    X87       CONSTR6   842
    X87       CONSTR7   381
    X87       CONSTR8   281
    X87       CONSTR9   202
    X87       CONSTR10  383
    X88       OBJ       771
    X88       CONSTR1   679
    X88       CONSTR2   309
    X88       CONSTR3   294
    X88       CONSTR4   618
    X88       CONSTR5   493
    X88       CONSTR6   451
    X88       CONSTR7   723
    X88       CONSTR8   333
    X88       CONSTR9   660
    X88       CONSTR10  667
    X89       OBJ       336
    X89       CONSTR1   376
    X89       CONSTR2   123
    X89       CONSTR3   509
    X89       CONSTR4   549
    X89       CONSTR5   115
    X89       CONSTR6   197
    X89       CONSTR7   6
    X89       CONSTR8   130
    X89       CONSTR9   132
    X89       CONSTR10  483
    X90       OBJ       900
    X90       CONSTR1   868
    X90       CONSTR2   688
    X90       CONSTR3   53
    X90       CONSTR4   523
    X90       CONSTR5   471
    X90       CONSTR6   335
    X90       CONSTR7   203
    X90       CONSTR8   318
    X90       CONSTR9   664
    X90       CONSTR10  709
    X91       OBJ       749
    X91       CONSTR1   63
    X91       CONSTR2   116
    X91       CONSTR3   719
    X91       CONSTR4   745
    X91       CONSTR5   618
    X91       CONSTR6   701
    X91       CONSTR7   619
    X91       CONSTR8   896
    X91       CONSTR9   215
    X91       CONSTR10  54
    X92       OBJ       485
    X92       CONSTR1   813
    X92       CONSTR2   308
    X92       CONSTR3   128
    X92       CONSTR4   626
    X92       CONSTR5   828
    X92       CONSTR6   92
    X92       CONSTR7   880
    X92       CONSTR8   288
    X92       CONSTR9   109
    X92       CONSTR10  460
    X93       OBJ       758
    X93       CONSTR1   548
    X93       CONSTR2   187
    X93       CONSTR3   607
    X93       CONSTR4   740
    X93       CONSTR5   799
    X93       CONSTR6   993
    X93       CONSTR7   732
    X93       CONSTR8   920
    X93       CONSTR9   715
    X93       CONSTR10  460
    X94       OBJ       727
    X94       CONSTR1   275
    X94       CONSTR2   549
    X94       CONSTR3   550
    X94       CONSTR4   365
    X94       CONSTR5   556
    X94       CONSTR6   297
    X94       CONSTR7   870
    X94       CONSTR8   248
    X94       CONSTR9   377
    X94       CONSTR10  573
    X95       OBJ       619
    X95       CONSTR1   177
    X95       CONSTR2   906
    X95       CONSTR3   412
    X95       CONSTR4   891
    X95       CONSTR5   113
    X95       CONSTR6   732
    X95       CONSTR7   264
    X95       CONSTR8   92
    X95       CONSTR9   829
    X95       CONSTR10  164
    X96       OBJ       725
    X96       CONSTR1   521
    X96       CONSTR2   252
    X96       CONSTR3   44
    X96       CONSTR4   514
    X96       CONSTR5   289
    X96       CONSTR6   245
    X96       CONSTR7   148
    X96       CONSTR8   102
    X96       CONSTR9   206
    X96       CONSTR10  805
    X97       OBJ       664
    X97       CONSTR1   804
    X97       CONSTR2   158
    X97       CONSTR3   494
    X97       CONSTR4   372
    X97       CONSTR5   811
    X97       CONSTR6   672
    X97       CONSTR7   281
    X97       CONSTR8   228
    X97       CONSTR9   228
    X97       CONSTR10  154
    X98       OBJ       883
    X98       CONSTR1   664
    X98       CONSTR2   485
    X98       CONSTR3   806
    X98       CONSTR4   467
    X98       CONSTR5   104
    X98       CONSTR6   302
    X98       CONSTR7   439
    X98       CONSTR8   244
    X98       CONSTR9   141
    X98       CONSTR10  884
    X99       OBJ       883
    X99       CONSTR1   904
    X99       CONSTR2   860
    X99       CONSTR3   420
    X99       CONSTR4   615
    X99       CONSTR5   740
    X99       CONSTR6   569
    X99       CONSTR7   373
    X99       CONSTR8   371
    X99       CONSTR9   642
    X99       CONSTR10  190
    X100      OBJ       871
    X100      CONSTR1   422
    X100      CONSTR2   524
    X100      CONSTR3   844
    X100      CONSTR4   353
    X100      CONSTR5   780
    X100      CONSTR6   514
    X100      CONSTR7   521
    X100      CONSTR8   335
    X100      CONSTR9   87
    X100      CONSTR10  724
    INT0001   'MARKER'  'INTEND'
RHS
    RHS10001  CONSTR1   12201
    RHS10001  CONSTR2   12416
    RHS10001  CONSTR3   11848
    RHS10001  CONSTR4   13093
    RHS10001  CONSTR5   12057
    RHS10001  CONSTR6   13132
    RHS10001  CONSTR7   11805
    RHS10001  CONSTR8   10865
    RHS10001  CONSTR9   12479
    RHS10001  CONSTR10  10652
BOUNDS
 BV BND       X1        .00
 BV BND       X2        .00
 BV BND       X3        .00
 BV BND       X4        .00
 BV BND       X5        .00
 BV BND       X6        .00
 BV BND       X7        .00
 BV BND       X8        .00
 BV BND       X9        .00
 BV BND       X10       .00
 BV BND       X11       .00
 BV BND       X12       .00
 BV BND       X13       .00
 BV BND       X14       .00
 BV BND       X15       .00
 BV BND       X16       .00
 BV BND       X17       .00
 BV BND       X18       .00
 BV BND       X19       .00
 BV BND       X20       .00
 BV BND       X21       .00
 BV BND       X22       .00
 BV BND       X23       .00
 BV BND       X24       .00
 BV BND       X25       .00
 BV BND       X26       .00
 BV BND       X27       .00
 BV BND       X28       .00
 BV BND       X29       .00
 BV BND       X30       .00
 BV BND       X31       .00
 BV BND       X32       .00
 BV BND       X33       .00
 BV BND       X34       .00
 BV BND       X35       .00
 BV BND       X36       .00
 BV BND       X37       .00
 BV BND       X38       .00
 BV BND       X39       .00
 BV BND       X40       .00
 BV BND       X41       .00
 BV BND       X42       .00
 BV BND       X43       .00
 BV BND       X44       .00
 BV BND       X45       .00
 BV BND       X46       .00
 BV BND       X47       .00
 BV BND       X48       .00
 BV BND       X49       .00
 BV BND       X50       .00
 BV BND       X51       .00
 BV BND       X52       .00
 BV BND       X53       .00
 BV BND       X54       .00
 BV BND       X55       .00
 BV BND       X56       .00
 BV BND       X57       .00
 BV BND       X58       .00
 BV BND       X59       .00
 BV BND       X60       .00
 BV BND       X61       .00
 BV BND       X62       .00
 BV BND       X63       .00
 BV BND       X64       .00
 BV BND       X65       .00
 BV BND       X66       .00
 BV BND       X67       .00
 BV BND       X68       .00
 BV BND       X69       .00
 BV BND       X70       .00
 BV BND       X71       .00
 BV BND       X72       .00
 BV BND       X73       .00
 BV BND       X74       .00
 BV BND       X75       .00
 BV BND       X76       .00
 BV BND       X77       .00
 BV BND       X78       .00
 BV BND       X79       .00
 BV BND       X80       .00
 BV BND       X81       .00
 BV BND       X82       .00
 BV BND       X83       .00
 BV BND       X84       .00
 BV BND       X85       .00
 BV BND       X86       .00
 BV BND       X87       .00
 BV BND       X88       .00
 BV BND       X89       .00
 BV BND       X90       .00
 BV BND       X91       .00
 BV BND       X92       .00
 BV BND       X93       .00
 BV BND       X94       .00
 BV BND       X95       .00
 BV BND       X96       .00
 BV BND       X97       .00
 BV BND       X98       .00
 BV BND       X99       .00
 BV BND       X100      .00
ENDATA
